\Generated by Cardinal Operations

Maximize
   1477.78 x_('A','B')13:55_f + 464.67 x_('A','B')13:55_l 
   + 1443.6 x_('B','A')9:05_f + 424.67 x_('B','A')9:05_l 
Subject To
 capacity_constraint_('A','B')13:55: 1.2 x_('A','B')13:55_f 
   + x_('A','B')13:55_l <= 187
 balance_constraint_('A','B')13:55: 4.92 x_('A','B')13:55_0 
   + 0.72 x_('A','B')13:55_f + 0.72 x_('A','B')13:55_l <= 170.64
 scale_constraint_('A','B')13:55_f: 2.803 x_('A','B')13:55_0 
   - 0.9 x_('A','B')13:55_f >= 0
 scale_constraint_('A','B')13:55_l: 1.367 x_('A','B')13:55_0 
   - 0.9 x_('A','B')13:55_l >= 0
 capacity_constraint_('B','A')9:05: 1.2 x_('B','A')9:05_f 
   + x_('B','A')9:05_l <= 187
 balance_constraint_('B','A')9:05: 3.7 x_('B','A')9:05_0 
   + 0.9 x_('B','A')9:05_f + 0.9 x_('B','A')9:05_l <= 166.14
 scale_constraint_('B','A')9:05_f: 1.864 x_('B','A')9:05_0 
   - 2 x_('B','A')9:05_f >= 0
 scale_constraint_('B','A')9:05_l: x_('B','A')9:05_0 - 2 x_('B','A')9:05_l 
   >= 0
END

